100
128
12
16
41
16
9
22
38
29
51
7
45
53
41
11
34
5
21
64
2
43
37
3
38
34
2
13
57
59
63
3
52
4
44
7
39
30
7
36
1
51
23
27
50
35
41
25
45
51
5
2
29
34
45
11
23
27
36
24
27
49
3
2
38
33
42
29
4
22
58
1
34
23
51
46
3
2
33
60
2
64
55
8
36
60
62
43
32
8
21
64
42
21
34
63
9
63
37
7
47
44